10
5
3401
0
0
37 38 39 40 39
1
0
49 52 51 53 52
2
0
54 54 56 55 54
3
0
52 51 53 57 55
4
0
59 55 57 62 56
5
0
45 46 45 41 41
6
0
45 44 45 44 42
7
0
47 48 49 48 51
8
0
52 46 51 52 55
9
0
54 56 56 50 54
